db/data/449124972221323100927671233672048014141.z3.out
-------------------
2500.239053550
